\* Source Pyomo model name=unknown *\

min 
x34:
+0.038763063656417837 x1
+0 x10
+0 x11
+0 x12
+0 x13
+0 x14
+0 x15
+0 x16
+0 x17
+0 x18
+0 x19
+0 x2
+0 x20
+0 x3
+0 x4
+0 x5
+0 x6
+0.041289222344920364 x7
+0 x8
+0.016328632444461273 x9

s.t.

c_e_x35_:
-1 x21
+1 x7
= 0

c_e_x36_:
-1 x23
+1 x9
= 0

c_e_x37_:
+1 x1
-1 x25
= 0

c_e_x38_:
+1 x2
-0.47245715262799803 x30
= 0

c_e_x39_:
+1 x10
-0.4168992067367579 x31
= 0

c_e_x40_:
-0.82773659643002395 x32
+1 x6
= 0

c_e_x41_:
-0.93903187383026732 x33
+1 x4
= 0

c_e_x42_:
-1 x21
+1 x30
= 0

c_e_x43_:
-1 x24
+1 x31
= 0

c_e_x44_:
-1 x25
+1 x32
= 0

c_e_x45_:
-1 x23
+1 x33
= 0

c_e_x46_:
-1 x21
+1 x30
= 0

c_e_x47_:
-1 x23
+1 x33
= 0

c_e_x48_:
-1 x24
+1 x31
= 0

c_e_x49_:
-1 x25
+1 x32
= 0

c_e_x50_:
+1 x2
-1 x22
= 0

c_e_x51_:
+1 x10
-1 x27
= 0

c_e_x52_:
-1 x28
+1 x6
= 0

c_e_x53_:
-1 x29
+1 x4
= 0

c_e_x54_:
+1 x26
= 1000

c_e_x55_:
-1 x26
+1 x8
= 0

c_e_x56_:
+1 x22
-1 x24
+1 x28
+1 x29
= 0

c_e_x57_:
-1 x26
+1 x27
= 0

c_e_x58_:
-1 x22
-1 x28
-1 x29
+1 x3
= 0

c_e_x59_:
-1 x27
+1 x5
= 0

c_u_x60_:
+1 x1
+ [
-1 x1 * x11
]
<= 0

c_u_x61_:
+1 x2
+ [
-1 x12 * x2
]
<= 0

c_u_x62_:
+1 x3
+ [
-1 x13 * x3
]
<= 0

c_u_x63_:
+1 x4
+ [
-1 x14 * x4
]
<= 0

c_u_x64_:
+1 x5
+ [
-1 x15 * x5
]
<= 0

c_u_x65_:
+1 x6
+ [
-1 x16 * x6
]
<= 0

c_u_x66_:
+1 x7
+ [
-1 x17 * x7
]
<= 0

c_u_x67_:
+1 x8
+ [
-1 x18 * x8
]
<= 0

c_u_x68_:
+1 x9
+ [
-1 x19 * x9
]
<= 0

c_u_x69_:
+1 x10
+ [
-1 x10 * x20
]
<= 0

c_u_x70_:
+0 x1
+0.040000000000000001 x7
+0.073200000000000001 x9
<= 40

c_e_ONE_VAR_CONSTANT: 
ONE_VAR_CONSTANT = 1.0

bounds
   0 <= x1 <= 9999999
   0 <= x2 <= +inf
   0 <= x3 <= +inf
   0 <= x4 <= +inf
   0 <= x5 <= +inf
   0 <= x6 <= +inf
   0 <= x7 <= 9999999
   0 <= x8 <= +inf
   0 <= x9 <= 9999999
   0 <= x10 <= +inf
   0 <= x11 <= 1
   0 <= x12 <= 1
   0 <= x13 <= 1
   0 <= x14 <= 1
   0 <= x15 <= 1
   0 <= x16 <= 1
   0 <= x17 <= 1
   0 <= x18 <= 1
   0 <= x19 <= 1
   0 <= x20 <= 1
   0 <= x21 <= +inf
   0 <= x22 <= +inf
   0 <= x23 <= +inf
   0 <= x24 <= +inf
   0 <= x25 <= +inf
   0 <= x26 <= +inf
   0 <= x27 <= +inf
   0 <= x28 <= +inf
   0 <= x29 <= +inf
   0 <= x30 <= +inf
   0 <= x31 <= +inf
   0 <= x32 <= +inf
   0 <= x33 <= +inf
binary
  x11
  x12
  x13
  x14
  x15
  x16
  x17
  x18
  x19
  x20
end
